c ren 1 -> 1
c ren 2 -> 2
c ren 3 -> 3
c ren 5 -> 4
c ren 7 -> 5
c ren 8 -> 6
c ren 9 -> 7
c ren 10 -> 8
c ren 14 -> 9
c ren 15 -> 10
c ren 16 -> 11
c ren 18 -> 12
c ren 21 -> 13
c ren 28 -> 14
c ren 29 -> 15
c ren 33 -> 16
c ren 37 -> 17
c ren 40 -> 18
c ren 41 -> 19
c ren 42 -> 20
c ren 45 -> 21
c ren 46 -> 22
c ren 49 -> 23
c ren 50 -> 24
c ren 53 -> 25
c ren 54 -> 26
c ren 56 -> 27
c ren 59 -> 28
c ren 61 -> 29
c ren 64 -> 30
c ren 72 -> 31
c ren 80 -> 32
p cnf 32 91
a 1 2 3 5 6 7 9 10 11 13 14 16 17 19 21 23 25 28 30 0
d 15 2 3 0
d 26 21 23 0
d 31 14 17 0
d 32 28 30 0
e 4 8 12 18 20 22 24 27 29 0
-1 2 3 -4 0
1 -2 -3 4 0
1 2 -3 -4 0
-1 -2 3 4 0
1 -2 3 -4 0
-1 -2 -3 -4 0
1 2 3 4 0
-1 2 -3 4 0
-6 7 8 0
6 -7 8 0
-6 -7 -8 0
6 7 -8 0
-2 -3 -4 -5 -8 -12 -13 -14 -15 -16 -17 -18 0
-2 -3 -4 -5 -8 -12 -13 14 15 -16 -17 -18 0
10 -11 -19 20 0
9 10 -11 -12 0
-9 -10 11 12 0
9 -10 11 -12 0
9 -10 -11 12 0
-10 11 -19 20 0
12 18 0
-1 -4 -5 -8 -12 -13 -14 -15 -16 -17 -18 0
2 25 26 27 0
-2 -3 -4 5 8 -12 -13 14 15 16 17 -18 0
2 -4 5 8 -12 13 14 15 16 17 -18 0
1 2 -4 -5 -8 -12 13 -14 -15 -16 -17 -18 0
3 -4 5 8 -12 13 -14 -15 16 17 -18 0
3 25 26 27 0
3 -4 5 8 -12 13 14 15 16 17 -18 0
1 2 -4 -5 -8 -12 13 14 15 -16 -17 -18 0
-2 -3 -4 5 8 -12 -13 -14 -15 16 17 -18 0
4 18 0
-10 -11 19 20 0
-9 10 -11 12 0
-15 -21 22 0
15 21 22 0
9 -10 -13 18 19 -22 -24 25 -27 -29 -30 0
-16 -23 24 0
16 23 24 0
-2 -3 -25 27 0
-25 -26 27 0
2 -4 5 8 -12 13 -14 -15 16 17 -18 0
-1 -4 -5 -8 -12 -13 14 15 -16 -17 -18 0
10 11 19 20 0
-19 -25 -28 29 0
25 28 29 0
19 28 29 0
9 10 13 18 -19 -20 -22 -24 25 -27 -29 30 0
-9 -10 -11 18 0
-9 11 -13 18 19 -20 -22 -24 -25 -27 -29 30 0
-9 10 11 -12 0
-10 -11 13 18 19 -22 -24 -25 -27 -29 -30 0
-1 5 10 18 -20 -22 -24 -27 -29 30 31 0
9 10 11 12 0
1 5 10 18 -20 -22 -24 -27 -29 30 -31 0
-9 10 13 18 19 -20 -22 -24 25 -27 -29 30 0
-6 7 10 18 -20 -22 -24 -27 -29 30 0
6 -7 10 18 -20 -22 -24 -27 -29 30 0
1 -5 10 18 -20 -22 -24 -27 -29 30 31 0
-9 11 -13 18 -20 -22 -24 -27 -29 30 32 0
9 11 18 -20 -22 -24 -27 -29 30 -32 0
11 13 18 -20 -22 -24 -27 -29 30 -32 0
-9 11 -13 18 -19 -22 -24 25 -27 -29 30 0
9 11 -13 18 19 -22 -24 25 -27 -29 30 0
9 11 13 18 19 -22 -24 -25 -27 -29 30 0
-9 10 -13 18 19 -20 -22 -24 -25 -27 -29 30 0
9 10 -13 18 -19 -20 -22 -24 -25 -27 -29 30 0
9 10 13 18 19 -22 -24 -25 -27 -29 30 0
-9 11 13 18 -19 -22 -24 -25 -27 -29 30 0
9 11 13 18 -19 -20 -22 -24 25 -27 -29 30 0
-9 11 13 18 19 -20 -22 -24 25 -27 -29 30 0
9 11 -13 18 -19 -20 -22 -24 -25 -27 -29 30 0
-9 10 13 18 -19 -22 -24 -25 -27 -29 30 0
-1 -5 10 18 -20 -22 -24 -27 -29 30 -31 0
-1 5 11 18 -20 -22 -24 -27 -29 30 31 0
-1 -5 -10 -11 18 -20 -22 -24 -27 -29 -30 -31 0
9 10 18 -20 -22 -24 -27 -29 30 -32 0
-9 10 -13 18 -20 -22 -24 -27 -29 30 32 0
-6 7 -10 -11 18 -20 -22 -24 -27 -29 -30 0
-1 -5 11 18 -20 -22 -24 -27 -29 30 -31 0
10 13 18 -20 -22 -24 -27 -29 30 -32 0
6 -7 -10 -11 18 -20 -22 -24 -27 -29 -30 0
9 10 -13 18 19 -22 -24 25 -27 -29 30 0
-6 7 11 18 -20 -22 -24 -27 -29 30 0
1 -5 11 18 -20 -22 -24 -27 -29 30 31 0
6 -7 11 18 -20 -22 -24 -27 -29 30 0
-9 10 -13 18 -19 -22 -24 25 -27 -29 30 0
1 5 11 18 -20 -22 -24 -27 -29 30 -31 0
-1 5 -10 -11 18 -20 -22 -24 -27 -29 -30 31 0
1 -5 -10 -11 18 -20 -22 -24 -27 -29 -30 31 0
1 5 -10 -11 18 -20 -22 -24 -27 -29 -30 -31 0
